treewidth/data/SousselierGraph.gr
p tw 16 27
1 2
1 12
1 4
1 7
2 9
2 8
9 10
9 13
10 11
10 15
10 7
11 12
11 8
12 13
12 16
13 14
14 15
14 8
15 16
15 5
16 3
3 4
3 8
4 5
5 6
6 7
6 8
