treewidth/data/SousselierGraph.td
c width = 5, time = 0.062655
s td 8 6 16
b 1 4 7 8 9 12 15
b 2 2 4 7 8 9 12
b 3 1 2 4 7 12
b 4 3 4 8 12 15 16
b 5 4 5 6 7 8 15
b 6 7 8 9 11 12 15
b 7 7 9 10 11 15
b 8 8 9 12 13 14 15
2 3
1 2
1 4
1 5
6 7
1 6
1 8
